NAME : amz2460.127143_124143.tour
COMMENT : Cost = 127143_124143
COMMENT : Found by LKH-AMZ [Keld Helsgaun] Sun May 11 13:56:59 2025
COMMENT : TW viol.: 0 #: 0
TYPE : TOUR
DIMENSION : 163
TOUR_SECTION
133
141
126
116
6
109
147
82
15
19
52
123
34
43
16
120
2
108
161
160
55
32
53
91
24
100
23
64
38
30
72
163
18
92
159
66
3
68
119
73
40
138
157
89
4
129
93
80
127
60
122
125
152
20
113
90
97
117
96
153
28
67
56
102
49
29
86
65
74
47
124
46
115
50
17
8
79
95
70
81
162
62
103
59
139
36
135
134
39
58
140
105
114
84
35
87
27
101
150
69
155
45
13
144
154
57
94
21
106
12
149
136
156
145
33
137
104
128
61
151
76
110
88
37
158
22
130
42
131
48
5
121
99
111
107
1
11
63
10
51
9
132
118
143
78
54
44
83
148
41
142
25
98
146
112
14
77
31
85
7
71
26
75
-1
EOF
